SCIP Status        : solving was interrupted [time limit reached]
Total Time         :    3600.02
  solving          :    3600.00
  presolving       :       0.48 (included in solving)
  reading          :       0.02
  copying          :       0.37 (43 #copies) (minimal 0.01, maximal 0.01, average 0.01)
Original Problem   :
  Problem name     : chp_shorttermplan2b
  Variables        : 1392 (0 binary, 192 integer, 0 implicit integer, 1200 continuous)
  Constraints      : 2552 initial, 2552 maximal
  Objective        : minimize, 48 non-zeros (abs.min = 1, abs.max = 1)
Presolved Problem  :
  Problem name     : t_chp_shorttermplan2b
  Variables        : 2884 (146 binary, 0 integer, 50 implicit integer, 2688 continuous)
  Constraints      : 1816 initial, 1826 maximal
  Objective        : minimize, 676 non-zeros (abs.min = 0.1, abs.max = 8020)
  Nonzeros         : 5174 constraint, 0 clique table
Presolvers         :   ExecTime  SetupTime  Calls  FixedVars   AggrVars   ChgTypes  ChgBounds   AddHoles    DelCons    AddCons   ChgSides   ChgCoefs
  boundshift       :       0.00       0.00      0          0          0          0          0          0          0          0          0          0
  convertinttobin  :       0.00       0.00      0          0          0          0          0          0          0          0          0          0
  domcol           :       0.00       0.00      3          0          0          0          0          0          0          0          0          0
  dualagg          :       0.00       0.00      0          0          0          0          0          0          0          0          0          0
  dualcomp         :       0.00       0.00      3          0          0          0          0          0          0          0          0          0
  dualinfer        :       0.00       0.00      0          0          0          0          0          0          0          0          0          0
  dualsparsify     :       0.00       0.00      1          0          0          0          0          0          0          0          0          0
  gateextraction   :       0.00       0.00      0          0          0          0          0          0          0          0          0          0
  implics          :       0.00       0.00      6          0          0          0          0          0          0          0          0          0
  inttobinary      :       0.00       0.00      0          0          0          0          0          0          0          0          0          0
  qpkktref         :       0.00       0.00      0          0          0          0          0          0          0          0          0          0
  redvub           :       0.00       0.00      0          0          0          0          0          0          0          0          0          0
  sparsify         :       0.00       0.00      1          0          0          0          0          0          0          0          0          0
  stuffing         :       0.00       0.00      0          0          0          0          0          0          0          0          0          0
  trivial          :       0.00       0.00     11        192          0          0          0          0          0          0          0          0
  tworowbnd        :       0.00       0.00      0          0          0          0          0          0          0          0          0          0
  dualfix          :       0.00       0.00     11         94          0          0          0          0          0          0          0          0
  genvbounds       :       0.00       0.00      0          0          0          0          0          0          0          0          0          0
  probing          :       0.08       0.00      3          0         46          0         50          0          0          0          0          0
  pseudoobj        :       0.00       0.00      0          0          0          0          0          0          0          0          0          0
  symmetry         :       0.02       0.00      1          0          0          0          0          0          0          0          0          0
  vbounds          :       0.00       0.00      0          0          0          0          0          0          0          0          0          0
  varbound         :       0.00       0.00     11          0          0          0         27          0          0          0          0          0
  linear           :       0.02       0.00     17          0         96          0         96          0        784         48          0         30
  logicor          :       0.00       0.00     14          0          0          0          0          0          0          0          0          0
  nonlinear        :       0.35       0.02     20          0          0          0         48          0          0        -48          0        -30
  benders          :       0.00       0.00      0          0          0          0          0          0          0          0          0          0
  components       :       0.00       0.00      1          0          0          0          0          0          0          0          0          0
  root node        :          -          -      -          9          -          -       1030          -          -          -          -          -
Constraints        :     Number  MaxNumber  #Separate #Propagate    #EnfoLP    #EnfoRelax  #EnfoPS    #Check   #ResProp    Cutoffs    DomReds       Cuts    Applied      Conss   Children
  benderslp        :          0          0          0          0      95305          0       1007      29046          0          0          0          0          0          0          0
  integral         :          0          0          0          0      95305          0          0      29046          0          0       4578          0          0          0       1386
  varbound         :        576        576          1     257406          0          0        355      29041          0          0     332418          0          0          0          0
  linear           :        484        484          1     305646          0          0          0      24492         35         31     411131          0          0          0          0
  logicor          :         84+        94          1     171931          0          0       1007      24490          0          1     167113          0          0          0          0
  nonlinear        :        672        672     132931     305614      94151          0       1007      24490          0         98     901228     857852     560240          0      52998
  benders          :          0          0          0          0          0          0       1007        191          0          0          0          0          0          0          0
  countsols        :          0          0          0          0          0          0       1007        191          0          0          0          0          0          0          0
  components       :          0          0          0          0          0          0          0          0          0          0          0          0          0          0          0
Constraint Timings :  TotalTime  SetupTime   Separate  Propagate     EnfoLP     EnfoPS     EnfoRelax   Check    ResProp    SB-Prop
  benderslp        :       0.05       0.00       0.00       0.00       0.05       0.00       0.00       0.00       0.00       0.00
  integral         :      17.44       0.00       0.00       0.00      17.43       0.00       0.00       0.01       0.00       0.00
  varbound         :       2.74       0.00       0.00       1.07       0.00       0.01       0.00       1.64       0.00       0.01
  linear           :       1.92       0.00       0.00       1.33       0.00       0.00       0.00       0.54       0.00       0.06
  logicor          :       0.70       0.00       0.00       0.60       0.00       0.01       0.00       0.08       0.00       0.00
  nonlinear        :     894.97       0.02     509.67      15.07     351.08       1.08       0.00      17.55       0.00       0.50
  benders          :       0.00       0.00       0.00       0.00       0.00       0.00       0.00       0.00       0.00       0.00
  countsols        :       0.00       0.00       0.00       0.00       0.00       0.00       0.00       0.00       0.00       0.00
  components       :       0.03       0.00       0.00       0.03       0.00       0.00       0.00       0.00       0.00       0.00
Propagators        : #Propagate   #ResProp    Cutoffs    DomReds
  dualfix          :          2          0          0          0
  genvbounds       :          0          0          0          0
  nlobbt           :          0          0          0          0
  obbt             :          0          0          0          0
  probing          :          0          0          0          0
  pseudoobj        :     390383          0          0          0
  redcost          :     272389          0          0      86609
  rootredcost      :          0          0          0          0
  symmetry         :          0          0          0          0
  vbounds          :     194061          0          0          0
Propagator Timings :  TotalTime  SetupTime   Presolve  Propagate    ResProp    SB-Prop
  dualfix          :       0.00       0.00       0.00       0.00       0.00       0.00
  genvbounds       :       0.20       0.00       0.00       0.20       0.00       0.00
  nlobbt           :       0.00       0.00       0.00       0.00       0.00       0.00
  obbt             :       0.00       0.00       0.00       0.00       0.00       0.00
  probing          :       0.08       0.00       0.08       0.00       0.00       0.00
  pseudoobj        :       3.07       0.00       0.00       3.07       0.00       0.00
  redcost          :      17.17       0.00       0.00      17.17       0.00       0.00
  rootredcost      :       0.08       0.00       0.00       0.08       0.00       0.00
  symmetry         :       0.07       0.00       0.02       0.05       0.00       0.00
  vbounds          :       0.19       0.00       0.00       0.19       0.00       0.00
Conflict Analysis  :       Time      Calls    Success    DomReds  Conflicts   Literals    Reconvs ReconvLits   Dualrays   Nonzeros   LP Iters   (pool size: [10000,10000])
  propagation      :       0.00          2          1          -          1        4.0         11        4.0          -          -          -
  infeasible LP    :       0.00          0          0          -          0        0.0          0        0.0          0        0.0          0
  bound exceed. LP :       7.71       1242          0          -          0        0.0          0        0.0          0        0.0          0
  strong branching :       0.00          0          0          -          0        0.0          0        0.0          -          -          0
  pseudo solution  :       0.00          0          0          -          0        0.0          0        0.0          -          -          -
  applied globally :       0.00          -          -          0         10        4.0          -          -          0          -          -
  applied locally  :          -          -          -          0          0        0.0          -          -          0          -          -
Separators         :   ExecTime  SetupTime      Calls  RootCalls    Cutoffs    DomReds  FoundCuts ViaPoolAdd  DirectAdd    Applied ViaPoolApp  DirectApp      Conss
  cut pool         :       0.03          -      12386          1          -          -       1552        792          -          -          -          -          -    (maximal pool size:       1114)
  aggregation      :       1.86       0.00        554          1          0          0        463        508          2         64         64          0          0
  > cmir           :          -          -          -          -          -          -          -        239          2         31         31          0          -
  > flowcover      :          -          -          -          -          -          -          -        269          0         33         33          0          -
  > knapsackcover  :          -          -          -          -          -          -          -          0          0          0          0          0          -
  cgmip            :       0.00       0.00          0          0          0          0          0          0          0          0          0          0          0
  clique           :       0.00       0.00          1          1          0          0          0          0          0          0          0          0          0
  closecuts        :       0.00       0.00          0          0          0          0          0          0          0          0          0          0          0
  convexproj       :       0.00       0.00          0          0          0          0          0          0          0          0          0          0          0
  disjunctive      :       0.00       0.00          0          0          0          0          0          0          0          0          0          0          0
  eccuts           :       0.00       0.00          0          0          0          0          0          0          0          0          0          0          0
  gauge            :       0.00       0.00          0          0          0          0          0          0          0          0          0          0          0
  gomory           :       0.10       0.00        526          1          0          0         72         14          9          5          3          2          0
  > gomorymi       :          -          -          -          -          -          -          -         14          9          5          3          2          -
  > strongcg       :          -          -          -          -          -          -          -          0          0          0          0          0          -
  impliedbounds    :       0.07       0.00        554          1          0          0        595         72          0         10         10          0          0
  interminor       :       0.00       0.00          0          0          0          0          0          0          0          0          0          0          0
  intobj           :       0.00       0.00          0          0          0          0          0          0          0          0          0          0          0
  mcf              :       0.00       0.00          1          1          0          0          0          0          0          0          0          0          0
  minor            :       0.37       0.00       1290          1          0          0      11695          0      11695      10650          0      10650          0
  mixing           :       0.24       0.00       1360          1          0          0        433        198          0         45         45          0          0
  oddcycle         :       0.00       0.00          0          0          0          0          0          0          0          0          0          0          0
  rapidlearning    :       0.00       0.00          0          0          0          0          0          0          0          0          0          0          0
  rlt              :       0.00       0.00          1          1          0          0          0          0          0          0          0          0          0
  zerohalf         :       0.45       0.00        526          1          0          0          0          0          0          0          0          0          0
Cutselectors       :   ExecTime  SetupTime      Calls  RootCalls   Selected     Forced   Filtered  RootSelec   RootForc   RootFilt 
  hybrid           :       0.58       0.00     107176          1     488412          0      72206        162          0        137
Pricers            :   ExecTime  SetupTime      Calls       Vars
  problem variables:       0.00          -          0          0
Branching Rules    :   ExecTime  SetupTime   BranchLP  BranchExt   BranchPS    Cutoffs    DomReds       Cuts      Conss   Children
  allfullstrong    :       0.00       0.00          0          0          0          0          0          0          0          0
  cloud            :       0.00       0.00          0          0          0          0          0          0          0          0
  distribution     :       0.00       0.00          0          0          0          0          0          0          0          0
  fullstrong       :       0.00       0.00          0          0          0          0          0          0          0          0
  inference        :       0.00       0.00          0          0          0          0          0          0          0          0
  leastinf         :       0.00       0.00          0          0          0          0          0          0          0          0
  lookahead        :       0.00       0.00          0          0          0          0          0          0          0          0
  mostinf          :       0.00       0.00          0          0          0          0          0          0          0          0
  multaggr         :       0.00       0.00          0          0          0          0          0          0          0          0
  nodereopt        :       0.00       0.00          0          0          0          0          0          0          0          0
  pscost           :       0.09       0.00          0       1007          0          0          0          0          0       2014
  random           :       0.00       0.00          0          0          0          0          0          0          0          0
  relpscost        :      17.38       0.00       1154          0          0          0       4578          0          0       1386
  vanillafullstrong:       0.00       0.00          0          0          0          0          0          0          0          0
Primal Heuristics  :   ExecTime  SetupTime      Calls      Found       Best
  LP solutions     :       0.00          -          -          0          0
  relax solutions  :       0.00          -          -          0          0
  pseudo solutions :       0.00          -          -          0          0
  strong branching :       0.13          -          -          0          0
  actconsdiving    :       0.00       0.00          0          0          0
  adaptivediving   :       4.02       0.00       1811          0          0
  alns             :      12.97       0.00          6          0          0
  bound            :       0.00       0.00          0          0          0
  clique           :       0.00       0.00          0          0          0
  coefdiving       :       0.00       0.00          0          0          0
  completesol      :       0.00       0.00          0          0          0
  conflictdiving   :       4.01       0.00       2505          0          0
  crossover        :      29.89       0.00          6          4          0
  dins             :       0.00       0.00          0          0          0
  distributiondivin:       1.42       0.00         13          0          0
  dps              :       0.00       0.00          0          0          0
  dualval          :       0.00       0.00          0          0          0
  farkasdiving     :       0.00       0.00          0          0          0
  feaspump         :       0.07       0.00          1          0          0
  fixandinfer      :       0.00       0.00          0          0          0
  fracdiving       :       3.85       0.00       2576          0          0
  gins             :     167.02       0.00         20         14          0
  guideddiving     :       3.97       0.00       2279          0          0
  indicator        :       0.08       0.00          0          0          0
  indicatordiving  :       0.00       0.00          0          0          0
  intdiving        :       0.00       0.00          0          0          0
  intshifting      :       0.01       0.00          9          0          0
  linesearchdiving :       5.26       0.00       2289          0          0
  localbranching   :       0.00       0.00          0          0          0
  locks            :       0.06       0.00          1          0          0
  lpface           :       0.02       0.00          0          0          0
  mpec             :      23.82       0.00          2          0          0
  multistart       :       0.00       0.00          0          0          0
  mutation         :       0.00       0.00          0          0          0
  nlpdiving        :      14.84       0.00          6          4          2
  objpscostdiving  :       0.51       0.00          5          0          0
  octane           :       0.00       0.00          0          0          0
  ofins            :       0.01       0.00          0          0          0
  oneopt           :       0.03       0.00          5          0          0
  padm             :       0.00       0.00          0          0          0
  proximity        :       0.00       0.00          0          0          0
  pscostdiving     :       0.38       0.00         14          0          0
  randrounding     :       1.02       0.00        811          0          0
  rens             :       0.00       0.00          0          0          0
  reoptsols        :       0.00       0.00          0          0          0
  repair           :       0.00       0.00          0          0          0
  rins             :      22.34       0.00         11          0          0
  rootsoldiving    :       0.16       0.00          5          0          0
  rounding         :       0.27       0.00        646          0          0
  shiftandpropagate:       0.02       0.00          1          0          0
  shifting         :       0.14       0.00        404          0          0
  simplerounding   :       0.09       0.00          0          0          0
  subnlp           :      85.47       0.00        194        155          4
  trivial          :       0.00       0.00          2          0          0
  trivialnegation  :       0.00       0.00          0          0          0
  trustregion      :       0.00       0.00          0          0          0
  trysol           :       0.05       0.00          0          0          0
  twoopt           :       0.00       0.00          0          0          0
  undercover       :       0.08       0.00          1          0          0
  vbounds          :       0.00       0.00          0          0          0
  veclendiving     :       4.15       0.00       2487          0          0
  zeroobj          :       0.00       0.00          0          0          0
  zirounding       :       0.17       0.00        693          0          0
  other solutions  :          -          -          -          0          -
Expressions        :   #IntEval  IntEvalTi   #RevProp  RevPropTi    DomReds    Cutoffs  #Estimate  EstimTime  Branching  #Simplify SimplifyTi Simplified
  pow              :    3527839       0.78       1444       0.00          0          0   56012333       3.17    9492753       2911       0.00          0
  prod             :     460226       0.20       1044       0.00         19          0   36143684     208.83   14524315       7450       0.01       4944
  sum              :      14112       0.01          0       0.00          0          0   13749572       0.92          0       8323       0.01       2584
  val              :          0       0.00          0       0.00          0          0          0       0.00          0          0       0.00          0
  var              :    3263123       0.21          0       0.00          0          0          0       0.00          0      12372       0.00        184
  varidx           :          0       0.00          0       0.00          0          0          0       0.00          0          0       0.00          0
Nlhdlrs            :    Detects  DetectAll DetectTime   #IntEval  IntEvalTi   #RevProp  RevPropTi    DomReds    Cutoffs   #Enforce   EnfoTime       Cuts  Branching
  soc              :          0          0       0.00          0       0.00          0       0.00          0          0          0       0.00          0          0
  convex           :          0          0       0.00          0       0.00          0       0.00          0          0          0       0.00          0          0
  concave          :          0          0       0.00          0       0.00          0       0.00          0          0          0       0.00          0          0
  quotient         :          0          0       0.00          0       0.00          0       0.00          0          0          0       0.00          0          0
  quadratic        :        672      14112       0.03    1937690       2.97    1345005       3.11     212777          0          0       0.00          0          0
  default          :       2690      28150       0.00    3978193       1.28       6430       0.00         19          0  105905061     333.81     855971          0
  bilinear         :        192        192       0.00          0       0.00          0       0.00          0          0   17635212       2.56          0          0
  perspective      :        192        192       0.00          0       0.00          0       0.00        182          0   25281390      37.59       3762     541017
LP                 :       Time      Calls Iterations  Iter/call   Iter/sec  Time-0-It Calls-0-It    ItLimit
  primal LP        :     274.28      18802     768876    3750.61    2803.30     242.80      18597
  dual LP          :    1821.82     206565   21437338     127.13   11766.98      69.51      37940
  lex dual LP      :       0.00          0          0       0.00          -
  barrier LP       :       0.00          0          0       0.00          -       0.00          0
  resolve instable :       1.08         54      13068     242.00   12149.37
  diving/probing LP:       4.89        214      24390     113.97    4989.96
  strong branching :      10.64        902      23892      26.49    2246.06          -          -        199
    (at root node) :          -          0          0       0.00          -
  conflict analysis:       0.00          0          0       0.00          -
NLP relaxation     :
  solve time       :      14.76 (17 calls)
  convexity        :  nonconvex (1135 linear rows, 0 convex ineq., 672 nonconvex ineq., 0 nonlinear eq. or two-sided ineq.)
NLP Solvers        :  #Problems  ProblemTi    #Solves  SolveTime      #Iter  Time/Iter      #Okay #TimeLimit #IterLimit #LObjLimit #Interrupt  #NumError #EvalError  #OutOfMem #LicenseEr #OtherTerm   #GlobOpt    #LocOpt  #Feasible #LocInfeas #GlobInfea #Unbounded   #Unknown
  ipopt            :        199       0.91        216     100.70       6840       0.01        214          0          2          0          0          0          0          0          0          0          0        211          0          2          0          0          3
B&B Tree           :
  number of runs   :          1
  nodes            :      30700 (28199 internal, 2501 leaves)
  feasible leaves  :          0
  infeas. leaves   :          0
  objective leaves :       2500
  nodes (total)    :      30700 (28199 internal, 2501 leaves)
  nodes left       :      25695
  max depth        :         44
  max depth (total):         44
  backtracks       :       6483 (21.1%)
  early backtracks :          0 (0.0%)
  nodes exc. ref.  :          0 (0.0%)
  delayed cutoffs  :          0
  repropagations   :          0 (0 domain reductions, 0 cutoffs)
  avg switch length:       8.05
  switching time   :     221.98
Root Node          :
  First LP value   : -2.14019490511061e+05
  First LP Iters   :       1245 (35858.29 Iter/sec)
  First LP Time    :       0.03
  Final Dual Bound : -2.14019490511061e+05
  Final Root Iters :       5325
  Root LP Estimate :                     -
Solution           :
  Solutions found  :        177 (6 improvements)
  First Solution   : -1.60634368167042e+05   (in run 1, after 1 nodes, 1.22 seconds, depth 0, found by <feaspump>)
  Gap First Sol.   :      33.23 %
  Gap Last Sol.    :       4.24 %
  Primal Bound     : -1.62735959064339e+05   (in run 1, after 68 nodes, 60.09 seconds, depth 27, found by <nlpdiving>)
  Dual Bound       : -1.62837491837775e+05
  Gap              :       0.06 %
Integrals          :      Total       Avg%
  primal-dual      :    1123.62       0.31
  primal-ref       :          -          - (not evaluated)
  dual-ref         :          -          - (not evaluated)
